Solving original (integer) problem with strategy gdp.bigm...
--- Job model.gms Start 02/16/26 00:57:44 52.2.0 d8e408be LEX-LEG x86 64bit/Linux
--- Applying:
    /package/gams/52.2/gmsprmun.txt
--- GAMS Parameters defined
    Input /local/scratch/a/sgusev/repos/k_means/data/gams_scip_gdp.bigm/no_mode/2026-02-16_00-57-43/original/model.gms
    Output /local/scratch/a/sgusev/repos/k_means/data/gams_scip_gdp.bigm/no_mode/2026-02-16_00-57-43/original/output.lst
    ScrDir /local/scratch/a/sgusev/repos/k_means/data/gams_scip_gdp.bigm/no_mode/2026-02-16_00-57-43/original/225a/
    SysDir /package/gams/52.2/
    CurDir /local/scratch/a/sgusev/repos/k_means/data/gams_scip_gdp.bigm/no_mode/2026-02-16_00-57-43/original/
    LogOption 3
    AppendLog 1
Licensee: David Bernal / SECQUOIA Research Group         G251008+0003Ac-GEN
          Purdue University, Davidson School of Chemical EngineeringDCE4838
          225a/gamslice.dat
          5a82958a-fbca-4a23
          node:66820903 mem:995 cores:48 ipport:60679 v:2                  
          Evaluation license: Not for commercial or production use
          The time-limited license stops working on : Jun 30, 2027
System information: 48 physical cores and 995 Gb physical memory detected
GAMS 52.2.0   Copyright (C) 1987-2025 GAMS Development. All rights reserved
--- Starting compilation
--- model.gms(257) 2 Mb
--- $echo File /local/scratch/a/sgusev/repos/k_means/data/gams_scip_gdp.bigm/no_mode/2026-02-16_00-57-43/original/scip.opt
--- model.gms(449) 2 Mb
--- Starting execution: elapsed 0:00:00.006
--- model.gms(267) 3 Mb
--- Generating MINLP model GAMS_MODEL
--- model.gms(271) 5 Mb
---   54 rows  71 columns  337 non-zeroes
---   840 nl-code  200 nl-non-zeroes
---   40 discrete-columns
--- Range statistics (absolute non-zero finite values)
--- RHS       [min, max] : [ 1.000E+00, 1.368E+01] - Zero values observed as well
--- Bound     [min, max] : [ 1.000E+00, 1.000E+02] - Zero values observed as well
--- Matrix    [min, max] : [ 8.325E-02, 1.368E+01]
--- model.gms(271) 3 Mb
--- Executing SCIP (Solvelink=5): elapsed 0:00:00.009

SCIP             52.2.0 d8e408be Dec 8, 2025           LEG x86 64bit/Linux    
SCIP version 9.2.4 (a94f778ac8)
Copyright (c) 2002-2025 Zuse Institute Berlin (ZIB)

External libraries: 
  CPLEX 22.1.2.0       Linear Programming Solver developed by IBM (www.cplex.com)
  CppAD 20180000.0     Algorithmic Differentiation of C++ algorithms developed by B. Bell (github.com/coin-or/CppAD)
  PaPILO 2.4.4         parallel presolve for integer and linear optimization (github.com/scipopt/papilo) (built with TBB) [GitHash: 7c826d50]
  Nauty 2.8.9          Computing Graph Automorphism Groups by Brendan D. McKay (users.cecs.anu.edu.au/~bdm/nauty)
  sassy 1.1            Symmetry preprocessor by Markus Anders (github.com/markusa4/sassy)
  Ipopt 3.14.19        Interior Point Optimizer developed by A. Waechter et.al. (github.com/coin-or/Ipopt)

reading option file /local/scratch/a/sgusev/repos/k_means/data/gams_scip_gdp.bigm/no_mode/2026-02-16_00-57-43/original/scip.opt
non-default parameter settings:
limits/time = 300
limits/gap = 1e-06
limits/absgap = 1e-10
lp/threads = 1
misc/printreason = FALSE
numerics/dualfeastol = 1e-06
parallel/maxnthreads = 1
nlpi/ipopt/linear_solver = "ma27"
nlpi/ipopt/linear_system_scaling = "mc19"

original problem has 70 variables (40 bin, 0 int, 30 cont) and 53 constraints

all 1 solutions given by solution candidate storage are infeasible

presolving:
(round 1, exhaustive) 0 del vars, 0 del conss, 0 add conss, 0 chg bounds, 0 chg sides, 0 chg coeffs, 10 upgd conss, 0 impls, 10 clqs
   (0.0s) probing cycle finished: starting next cycle
   (0.0s) symmetry computation started: requiring (bin +, int +, cont +), (fixed: bin -, int -, cont -)
   (0.0s) no symmetry present (symcode time: 0.00)
presolving (2 rounds: 2 fast, 2 medium, 2 exhaustive):
 0 deleted vars, 0 deleted constraints, 0 added constraints, 0 tightened bounds, 0 added holes, 0 changed sides, 0 changed coefficients
 0 implications, 10 cliques
presolved problem has 70 variables (40 bin, 0 int, 0 impl, 30 cont) and 53 constraints
     10 constraints of type <setppc>
      3 constraints of type <linear>
     40 constraints of type <nonlinear>
Presolving Time: 0.01

 time | node  | left  |LP iter|LP it/n|mem/heur|mdpt |vars |cons |rows |cuts |sepa|confs|strbr|  dualbound   | primalbound  |  gap   | compl. 
t 0.0s|     1 |     0 |    48 |     - |  trysol|   0 | 130 |  53 |  93 |   0 |  0 |   0 |   0 | 0.000000e+00 | 1.309747e+01 |    Inf | unknown
  0.0s|     1 |     0 |    97 |     - |  2359k |   0 | 130 |  53 |  93 |   0 |  0 |   0 |   0 | 0.000000e+00 | 1.309747e+01 |    Inf | unknown
r 0.1s|     1 |     0 |    97 |     - |shifting|   0 | 130 |  53 |  93 |   0 |  0 |   0 |   0 | 0.000000e+00 | 7.200898e+00 |    Inf | unknown
  0.1s|     1 |     0 |   117 |     - |  2602k |   0 | 130 |  53 | 108 |  15 |  1 |   0 |   0 | 0.000000e+00 | 7.200898e+00 |    Inf | unknown
  0.1s|     1 |     0 |   117 |     - |  2604k |   0 | 130 |  53 | 108 |  15 |  1 |   0 |   0 | 0.000000e+00 | 7.200898e+00 |    Inf | unknown
  0.1s|     1 |     0 |   140 |     - |  2744k |   0 | 130 |  53 | 123 |  30 |  2 |   0 |   0 | 0.000000e+00 | 7.200898e+00 |    Inf | unknown
  0.1s|     1 |     0 |   158 |     - |  2937k |   0 | 130 |  53 | 134 |  41 |  3 |   0 |   0 | 0.000000e+00 | 7.200898e+00 |    Inf | unknown
  0.1s|     1 |     0 |   172 |     - |  3179k |   0 | 130 |  53 | 145 |  52 |  4 |   0 |   0 | 0.000000e+00 | 7.200898e+00 |    Inf | unknown
  0.1s|     1 |     0 |   197 |     - |  3306k |   0 | 130 |  53 | 160 |  67 |  5 |   0 |   0 | 0.000000e+00 | 7.200898e+00 |    Inf | unknown
  0.1s|     1 |     0 |   222 |     - |  3421k |   0 | 130 |  53 | 168 |  75 |  6 |   0 |   0 | 0.000000e+00 | 7.200898e+00 |    Inf | unknown
  0.1s|     1 |     0 |   237 |     - |  3658k |   0 | 130 |  53 | 178 |  85 |  7 |   0 |   0 | 0.000000e+00 | 7.200898e+00 |    Inf | unknown
  0.1s|     1 |     0 |   257 |     - |  4016k |   0 | 130 |  53 | 189 |  96 |  8 |   0 |   0 | 0.000000e+00 | 7.200898e+00 |    Inf | unknown
  0.1s|     1 |     0 |   268 |     - |  4205k |   0 | 130 |  53 | 196 | 103 |  9 |   0 |   0 | 0.000000e+00 | 7.200898e+00 |    Inf | unknown
  0.1s|     1 |     0 |   290 |     - |  4289k |   0 | 130 |  53 | 202 | 109 | 10 |   0 |   0 | 0.000000e+00 | 7.200898e+00 |    Inf | unknown
  0.1s|     1 |     0 |   306 |     - |  4327k |   0 | 130 |  53 | 212 | 119 | 11 |   0 |   0 | 0.000000e+00 | 7.200898e+00 |    Inf | unknown
 time | node  | left  |LP iter|LP it/n|mem/heur|mdpt |vars |cons |rows |cuts |sepa|confs|strbr|  dualbound   | primalbound  |  gap   | compl. 
L 0.5s|     1 |     0 |   411 |     - |    rens|   0 | 130 |  53 | 212 | 119 | 11 |   0 |   0 | 0.000000e+00 | 4.895766e+00 |    Inf | unknown
  1.2s|     1 |     0 |   411 |     - |  4925k |   0 | 130 |  53 | 212 | 119 | 11 |   0 |   0 | 0.000000e+00 | 4.895766e+00 |    Inf | unknown
  1.2s|     1 |     0 |   422 |     - |  4947k |   0 | 130 |  53 | 219 | 126 | 12 |   0 |   0 | 0.000000e+00 | 4.895766e+00 |    Inf | unknown
  1.2s|     1 |     0 |   430 |     - |  4950k |   0 | 130 |  53 | 223 | 130 | 13 |   0 |   0 | 0.000000e+00 | 4.895766e+00 |    Inf | unknown
  1.2s|     1 |     2 |   430 |     - |  4955k |   0 | 130 |  53 | 223 | 130 | 13 |   0 |  20 | 0.000000e+00 | 4.895766e+00 |    Inf | unknown
d 1.3s|    24 |    23 |  1930 |  71.9 |nlpdivin|   7 | 130 |  53 | 135 |   0 |  2 |   0 |  80 | 0.000000e+00 | 3.212663e+00 |    Inf |   0.86%
  1.7s|   100 |    95 | 11161 | 109.9 |  9750k |  13 | 130 |  59 | 324 |4770 |  8 |  14 | 158 | 0.000000e+00 | 3.212663e+00 |    Inf |   1.48%
  2.1s|   200 |   187 | 20234 | 100.3 |    11M |  19 | 130 |  71 | 347 |9199 |  7 |  37 | 170 | 0.000000e+00 | 3.212663e+00 |    Inf |   1.55%
  2.6s|   300 |   251 | 29484 |  97.7 |    12M |  21 | 130 |  87 | 298 |  14k|  0 |  60 | 177 | 0.000000e+00 | 3.212663e+00 |    Inf |  11.12%
  3.1s|   400 |   323 | 38162 |  94.9 |    14M |  21 | 130 | 102 | 337 |  18k|  3 |  89 | 196 | 0.000000e+00 | 3.212663e+00 |    Inf |  12.37%
  3.5s|   500 |   397 | 47264 |  94.2 |    15M |  21 | 130 | 118 | 314 |  23k|  8 | 114 | 218 | 0.000000e+00 | 3.212663e+00 |    Inf |  12.61%
  3.7s|   600 |   459 | 54501 |  90.5 |    17M |  21 | 130 | 130 | 269 |  27k|  2 | 139 | 226 | 0.000000e+00 | 3.212663e+00 |    Inf |  13.37%
  4.1s|   700 |   511 | 63125 |  89.9 |    18M |  21 | 130 | 143 | 231 |  32k|  2 | 163 | 237 | 0.000000e+00 | 3.212663e+00 |    Inf |  15.54%
  4.4s|   800 |   564 | 70761 |  88.2 |    19M |  21 | 130 | 151 | 255 |  35k|  2 | 189 | 248 | 0.000000e+00 | 3.212663e+00 |    Inf |  19.27%
  4.8s|   900 |   634 | 79337 |  87.9 |    22M |  22 | 130 | 154 | 316 |  40k| 10 | 204 | 257 | 0.000000e+00 | 3.212663e+00 |    Inf |  19.64%
 time | node  | left  |LP iter|LP it/n|mem/heur|mdpt |vars |cons |rows |cuts |sepa|confs|strbr|  dualbound   | primalbound  |  gap   | compl. 
  5.0s|  1000 |   688 | 86503 |  86.3 |    23M |  22 | 130 | 172 | 344 |  43k|  7 | 238 | 262 | 0.000000e+00 | 3.212663e+00 |    Inf |  19.79%
  5.3s|  1100 |   728 | 92747 |  84.1 |    25M |  22 | 130 | 185 | 327 |  47k|  1 | 261 | 265 | 0.000000e+00 | 3.212663e+00 |    Inf |  20.79%
  5.7s|  1200 |   776 |100518 |  83.6 |    26M |  22 | 130 | 196 | 267 |  51k|  6 | 283 | 271 | 0.000000e+00 | 3.212663e+00 |    Inf |  20.96%
  6.0s|  1300 |   826 |108547 |  83.3 |    27M |  22 | 130 | 202 | 271 |  55k|  0 | 305 | 281 | 0.000000e+00 | 3.212663e+00 |    Inf |  21.03%
  6.2s|  1400 |   876 |114571 |  81.7 |    27M |  22 | 130 | 204 | 265 |  59k|  2 | 322 | 290 | 0.000000e+00 | 3.212663e+00 |    Inf |  25.01%
  6.4s|  1500 |   930 |121218 |  80.7 |    29M |  22 | 130 | 217 | 318 |  62k|  7 | 353 | 298 | 0.000000e+00 | 3.212663e+00 |    Inf |  25.37%
  6.6s|  1600 |   964 |126191 |  78.7 |    29M |  22 | 130 | 220 | 338 |  65k|  1 | 371 | 317 | 0.000000e+00 | 3.212663e+00 |    Inf |  27.70%
  6.8s|  1700 |  1020 |132321 |  77.7 |    31M |  22 | 130 | 230 | 237 |  69k|  2 | 392 | 321 | 0.000000e+00 | 3.212663e+00 |    Inf |  27.82%
  7.1s|  1800 |  1059 |138419 |  76.8 |    33M |  22 | 130 | 233 | 216 |  72k|  6 | 403 | 326 | 0.000000e+00 | 3.212663e+00 |    Inf |  27.99%
  7.3s|  1900 |  1103 |143908 |  75.6 |    33M |  23 | 130 | 236 | 263 |  75k|  1 | 414 | 333 | 0.000000e+00 | 3.212663e+00 |    Inf |  28.04%
  7.6s|  2000 |  1145 |150790 |  75.3 |    33M |  23 | 130 | 252 | 235 |  79k|  8 | 445 | 339 | 0.000000e+00 | 3.212663e+00 |    Inf |  28.54%
  7.8s|  2100 |  1174 |155629 |  74.0 |    34M |  23 | 130 | 257 | 310 |  82k|  0 | 461 | 343 | 0.000000e+00 | 3.212663e+00 |    Inf |  28.71%
* 7.8s|  2117 |  1059 |156848 |  74.0 |    LP  |  23 | 130 | 258 | 402 |  83k| 11 | 463 | 343 | 0.000000e+00 | 2.992727e+00 |    Inf |  30.12%
  8.0s|  2200 |  1083 |161148 |  73.2 |    35M |  23 | 130 | 265 | 290 |  85k|  3 | 483 | 344 | 0.000000e+00 | 2.992727e+00 |    Inf |  31.43%
  8.3s|  2300 |  1122 |166909 |  72.5 |    35M |  23 | 130 | 269 | 269 |  88k|  8 | 496 | 350 | 0.000000e+00 | 2.992727e+00 |    Inf |  32.33%
 time | node  | left  |LP iter|LP it/n|mem/heur|mdpt |vars |cons |rows |cuts |sepa|confs|strbr|  dualbound   | primalbound  |  gap   | compl. 
  8.4s|  2400 |  1146 |171845 |  71.5 |    36M |  23 | 130 | 270 | 286 |  91k|  2 | 517 | 354 | 0.000000e+00 | 2.992727e+00 |    Inf |  33.14%
  8.7s|  2500 |  1181 |177138 |  70.8 |    37M |  23 | 130 | 276 | 194 |  94k|  6 | 536 | 358 | 1.197220e-02 | 2.992727e+00 |  Large |  34.17%
  9.0s|  2600 |  1217 |183182 |  70.4 |    37M |  23 | 130 | 280 | 278 |  97k| 12 | 559 | 368 | 1.033939e-01 | 2.992727e+00 |2794.49%|  34.67%
  9.2s|  2700 |  1245 |188316 |  69.7 |    39M |  23 | 130 | 283 | 252 | 100k|  1 | 575 | 371 | 2.717416e-01 | 2.992727e+00 |1001.31%|  35.16%
  9.4s|  2800 |  1285 |192738 |  68.8 |    40M |  24 | 130 | 287 | 205 | 103k|  4 | 596 | 379 | 2.911064e-01 | 2.992727e+00 | 928.05%|  35.67%
  9.6s|  2900 |  1299 |196849 |  67.8 |    40M |  24 | 130 | 286 | 335 | 105k|  6 | 605 | 384 | 3.399249e-01 | 2.992727e+00 | 780.41%|  36.40%
  9.8s|  3000 |  1319 |201472 |  67.1 |    40M |  24 | 130 | 289 | 361 | 108k|  6 | 622 | 387 | 3.889035e-01 | 2.992727e+00 | 669.53%|  37.38%
 10.0s|  3100 |  1339 |206173 |  66.4 |    41M |  24 | 130 | 292 | 276 | 110k|  7 | 646 | 393 | 4.453017e-01 | 2.992727e+00 | 572.07%|  38.36%
 10.2s|  3200 |  1367 |210737 |  65.8 |    42M |  24 | 130 | 289 | 160 | 113k|  2 | 657 | 395 | 4.453017e-01 | 2.992727e+00 | 572.07%|  38.86%
 10.5s|  3300 |  1391 |215883 |  65.4 |    43M |  25 | 130 | 298 | 309 | 116k|  2 | 678 | 396 | 4.453017e-01 | 2.992727e+00 | 572.07%|  39.40%
*10.5s|  3342 |  1257 |217822 |  65.1 |    LP  |  25 | 130 | 168 | 391 | 117k| 10 | 682 | 396 | 4.563309e-01 | 2.868994e+00 | 528.71%|  39.99%
 10.6s|  3400 |  1277 |220619 |  64.8 |    43M |  25 | 130 | 166 | 383 | 118k|  5 | 687 | 397 | 4.563309e-01 | 2.868994e+00 | 528.71%|  40.12%
 10.8s|  3500 |  1289 |224917 |  64.2 |    43M |  25 | 130 | 165 | 316 | 121k|  7 | 700 | 400 | 4.644474e-01 | 2.868994e+00 | 517.72%|  40.62%
 11.0s|  3600 |  1311 |228551 |  63.4 |    43M |  25 | 130 | 160 | 269 | 123k|  1 | 715 | 401 | 4.909326e-01 | 2.868994e+00 | 484.40%|  41.13%
 11.2s|  3700 |  1339 |232808 |  62.9 |    44M |  25 | 130 | 159 | 291 | 125k|  2 | 728 | 411 | 5.781273e-01 | 2.868994e+00 | 396.26%|  41.58%
 time | node  | left  |LP iter|LP it/n|mem/heur|mdpt |vars |cons |rows |cuts |sepa|confs|strbr|  dualbound   | primalbound  |  gap   | compl. 
 11.3s|  3800 |  1349 |236714 |  62.2 |    44M |  25 | 130 | 165 | 366 | 127k|  8 | 761 | 413 | 6.115556e-01 | 2.868994e+00 | 369.13%|  42.31%
 11.5s|  3900 |  1373 |240305 |  61.6 |    44M |  25 | 130 | 164 | 298 | 129k|  0 | 776 | 414 | 6.358795e-01 | 2.868994e+00 | 351.19%|  42.73%
 11.7s|  4000 |  1393 |244028 |  61.0 |    45M |  25 | 130 | 165 | 240 | 131k|  2 | 792 | 420 | 6.475102e-01 | 2.868994e+00 | 343.08%|  43.09%
 11.8s|  4100 |  1409 |247874 |  60.4 |    45M |  25 | 130 | 170 | 305 | 133k|  0 | 810 | 426 | 6.725758e-01 | 2.868994e+00 | 326.57%|  43.73%
 12.0s|  4200 |  1426 |251607 |  59.9 |    45M |  25 | 130 | 172 | 322 | 135k|  0 | 823 | 428 | 6.770574e-01 | 2.868994e+00 | 323.74%|  44.05%
 12.2s|  4300 |  1441 |255410 |  59.3 |    46M |  25 | 130 | 179 | 366 | 137k|  4 | 854 | 431 | 7.079565e-01 | 2.868994e+00 | 305.25%|  44.93%
 12.3s|  4400 |  1463 |259875 |  59.0 |    48M |  26 | 130 | 185 | 421 | 139k|  7 | 876 | 432 | 7.201659e-01 | 2.868994e+00 | 298.38%|  45.15%
 12.5s|  4500 |  1466 |263609 |  58.5 |    48M |  27 | 130 | 188 | 328 | 141k|  5 | 890 | 434 | 7.204353e-01 | 2.868994e+00 | 298.23%|  45.56%
 12.7s|  4600 |  1480 |267469 |  58.1 |    49M |  27 | 130 | 180 | 209 | 143k|  2 | 903 | 441 | 7.386993e-01 | 2.868994e+00 | 288.38%|  46.05%
 12.8s|  4700 |  1484 |270898 |  57.6 |    50M |  27 | 130 | 179 | 298 | 145k|  1 | 920 | 448 | 7.430126e-01 | 2.868994e+00 | 286.13%|  46.42%
 13.0s|  4800 |  1479 |274305 |  57.1 |    50M |  27 | 130 | 176 | 264 | 147k|  2 | 937 | 449 | 7.866135e-01 | 2.868994e+00 | 264.73%|  47.38%
 13.1s|  4900 |  1489 |277745 |  56.6 |    50M |  27 | 130 | 177 | 349 | 149k|  0 | 951 | 449 | 7.934685e-01 | 2.868994e+00 | 261.58%|  47.69%
 13.3s|  5000 |  1499 |280870 |  56.1 |    50M |  27 | 130 | 181 | 317 | 150k|  0 | 965 | 451 | 8.296436e-01 | 2.868994e+00 | 245.81%|  48.44%
 13.5s|  5100 |  1515 |283665 |  55.6 |    50M |  27 | 130 | 187 | 237 | 152k|  4 | 986 | 453 | 8.296436e-01 | 2.868994e+00 | 245.81%|  48.81%
 13.6s|  5200 |  1513 |286739 |  55.1 |    51M |  27 | 130 | 184 |   0 | 154k|  0 |1008 | 457 | 8.304298e-01 | 2.868994e+00 | 245.48%|  49.57%
 time | node  | left  |LP iter|LP it/n|mem/heur|mdpt |vars |cons |rows |cuts |sepa|confs|strbr|  dualbound   | primalbound  |  gap   | compl. 
 13.8s|  5300 |  1516 |290157 |  54.7 |    52M |  27 | 130 | 185 | 315 | 155k|  6 |1023 | 459 | 8.891001e-01 | 2.868994e+00 | 222.69%|  50.27%
 13.9s|  5400 |  1512 |292896 |  54.2 |    52M |  27 | 130 | 181 | 318 | 157k|  0 |1031 | 461 | 8.891001e-01 | 2.868994e+00 | 222.69%|  50.54%
*14.0s|  5489 |  1172 |295266 |  53.8 |    LP  |  27 | 130 | 182 | 357 | 158k|  9 |1043 | 462 | 9.790660e-01 | 2.674803e+00 | 173.20%|  52.40%
 14.1s|  5500 |  1171 |295619 |  53.7 |    52M |  27 | 130 | 183 | 275 | 158k|  4 |1045 | 462 | 9.790669e-01 | 2.674803e+00 | 173.20%|  52.44%
 14.3s|  5600 |  1164 |299071 |  53.4 |    52M |  27 | 130 | 183 | 292 | 160k|  2 |1069 | 466 | 9.823203e-01 | 2.674803e+00 | 172.29%|  53.11%
 14.4s|  5700 |  1154 |302108 |  53.0 |    52M |  27 | 130 | 185 | 298 | 161k|  0 |1081 | 466 | 9.954724e-01 | 2.674803e+00 | 168.70%|  53.80%
 14.6s|  5800 |  1147 |305265 |  52.6 |    52M |  27 | 130 | 188 | 246 | 163k|  0 |1097 | 471 | 1.002056e+00 | 2.674803e+00 | 166.93%|  54.44%
 14.7s|  5900 |  1140 |308501 |  52.3 |    52M |  27 | 130 | 192 | 305 | 165k|  0 |1107 | 472 | 1.008113e+00 | 2.674803e+00 | 165.33%|  54.99%
 14.9s|  6000 |  1122 |311142 |  51.8 |    52M |  27 | 130 | 198 | 332 | 166k|  0 |1123 | 476 | 1.045780e+00 | 2.674803e+00 | 155.77%|  55.77%
 15.0s|  6100 |  1112 |314389 |  51.5 |    52M |  27 | 130 | 206 | 323 | 167k|  1 |1149 | 478 | 1.051034e+00 | 2.674803e+00 | 154.49%|  56.47%
 15.2s|  6200 |  1095 |317076 |  51.1 |    52M |  27 | 130 | 216 | 375 | 168k|  0 |1180 | 480 | 1.051171e+00 | 2.674803e+00 | 154.46%|  58.21%
 15.3s|  6300 |  1077 |319316 |  50.6 |    52M |  27 | 130 | 219 | 272 | 169k|  3 |1194 | 481 | 1.097097e+00 | 2.674803e+00 | 143.81%|  59.00%
 15.5s|  6400 |  1065 |321851 |  50.3 |    52M |  27 | 130 | 224 | 288 | 171k|  0 |1213 | 482 | 1.098521e+00 | 2.674803e+00 | 143.49%|  60.03%
 15.7s|  6500 |  1044 |324657 |  49.9 |    53M |  27 | 130 | 227 | 267 | 172k|  0 |1233 | 484 | 1.098521e+00 | 2.674803e+00 | 143.49%|  60.84%
 15.8s|  6600 |  1039 |327920 |  49.7 |    53M |  27 | 130 | 227 | 242 | 173k|  1 |1248 | 486 | 1.098779e+00 | 2.674803e+00 | 143.43%|  61.35%
 time | node  | left  |LP iter|LP it/n|mem/heur|mdpt |vars |cons |rows |cuts |sepa|confs|strbr|  dualbound   | primalbound  |  gap   | compl. 
 16.0s|  6700 |  1019 |330700 |  49.3 |    53M |  27 | 130 | 219 | 281 | 174k|  2 |1257 | 487 | 1.109996e+00 | 2.674803e+00 | 140.97%|  62.21%
 16.2s|  6800 |  1013 |333678 |  49.0 |    53M |  27 | 130 | 220 | 188 | 176k|  0 |1273 | 491 | 1.109997e+00 | 2.674803e+00 | 140.97%|  62.84%
 16.3s|  6900 |  1011 |336499 |  48.7 |    54M |  27 | 130 | 222 | 342 | 177k|  2 |1289 | 494 | 1.112165e+00 | 2.674803e+00 | 140.50%|  63.20%
 16.5s|  7000 |   997 |339119 |  48.4 |    54M |  27 | 130 | 230 | 329 | 178k|  7 |1305 | 498 | 1.112166e+00 | 2.674803e+00 | 140.50%|  63.82%
 16.6s|  7100 |   981 |341712 |  48.1 |    54M |  27 | 130 | 231 | 286 | 180k|  2 |1316 | 500 | 1.112166e+00 | 2.674803e+00 | 140.50%|  64.28%
 16.8s|  7200 |   973 |344970 |  47.9 |    55M |  27 | 130 | 248 | 317 | 181k|  0 |1346 | 502 | 1.112166e+00 | 2.674803e+00 | 140.50%|  64.76%
 16.9s|  7300 |   959 |347290 |  47.5 |    55M |  27 | 130 | 252 | 410 | 182k|  8 |1360 | 503 | 1.112168e+00 | 2.674803e+00 | 140.50%|  65.49%
 17.0s|  7400 |   927 |349535 |  47.2 |    55M |  27 | 130 | 259 | 326 | 183k|  0 |1385 | 511 | 1.134961e+00 | 2.674803e+00 | 135.67%|  66.27%
 17.2s|  7500 |   910 |352942 |  47.0 |    55M |  27 | 130 | 263 | 280 | 185k|  0 |1408 | 517 | 1.135899e+00 | 2.674803e+00 | 135.48%|  66.99%
 17.4s|  7600 |   892 |355447 |  46.7 |    55M |  27 | 130 | 268 | 259 | 186k|  0 |1426 | 518 | 1.161469e+00 | 2.674803e+00 | 130.29%|  67.86%
 17.5s|  7700 |   871 |357735 |  46.4 |    55M |  27 | 130 | 269 | 530 | 187k|  3 |1438 | 519 | 1.178318e+00 | 2.674803e+00 | 127.00%|  68.68%
 17.6s|  7800 |   865 |361181 |  46.3 |    55M |  27 | 130 | 282 | 258 | 189k|  1 |1468 | 527 | 1.202804e+00 | 2.674803e+00 | 122.38%|  69.06%
 17.8s|  7900 |   858 |364180 |  46.1 |    55M |  27 | 130 | 282 | 262 | 190k|  2 |1486 | 529 | 1.216170e+00 | 2.674803e+00 | 119.94%|  69.39%
 17.9s|  8000 |   853 |366481 |  45.8 |    55M |  27 | 130 | 291 | 198 | 191k|  0 |1519 | 538 | 1.216170e+00 | 2.674803e+00 | 119.94%|  69.75%
 18.0s|  8100 |   832 |368889 |  45.5 |    55M |  27 | 130 | 292 | 291 | 192k|  0 |1534 | 540 | 1.221311e+00 | 2.674803e+00 | 119.01%|  71.01%
 time | node  | left  |LP iter|LP it/n|mem/heur|mdpt |vars |cons |rows |cuts |sepa|confs|strbr|  dualbound   | primalbound  |  gap   | compl. 
 18.1s|  8200 |   818 |371363 |  45.3 |    55M |  27 | 130 | 293 | 315 | 193k|  0 |1549 | 540 | 1.222334e+00 | 2.674803e+00 | 118.83%|  71.46%
 18.3s|  8300 |   793 |374331 |  45.1 |    55M |  27 | 130 | 295 | 268 | 195k|  2 |1569 | 543 | 1.239370e+00 | 2.674803e+00 | 115.82%|  72.34%
 18.4s|  8400 |   791 |376896 |  44.8 |    55M |  27 | 130 | 297 | 226 | 196k|  2 |1580 | 550 | 1.258204e+00 | 2.674803e+00 | 112.59%|  72.85%
 18.6s|  8500 |   773 |379840 |  44.7 |    55M |  27 | 130 | 303 | 316 | 197k|  2 |1602 | 554 | 1.259889e+00 | 2.674803e+00 | 112.30%|  73.65%
 18.7s|  8600 |   759 |382177 |  44.4 |    55M |  27 | 130 | 312 | 239 | 198k|  0 |1620 | 554 | 1.262879e+00 | 2.674803e+00 | 111.80%|  75.26%
 18.8s|  8700 |   740 |384416 |  44.2 |    55M |  27 | 130 | 315 | 299 | 199k|  3 |1632 | 555 | 1.262879e+00 | 2.674803e+00 | 111.80%|  75.70%
 19.0s|  8800 |   730 |387820 |  44.0 |    55M |  27 | 130 | 326 | 306 | 201k|  2 |1655 | 558 | 1.282988e+00 | 2.674803e+00 | 108.48%|  76.21%
 19.1s|  8900 |   716 |391137 |  43.9 |    55M |  27 | 130 | 329 | 241 | 202k|  1 |1669 | 561 | 1.284028e+00 | 2.674803e+00 | 108.31%|  77.02%
 19.3s|  9000 |   712 |394028 |  43.8 |    55M |  27 | 130 | 341 | 209 | 204k|  2 |1699 | 564 | 1.284078e+00 | 2.674803e+00 | 108.31%|  78.41%
 19.4s|  9100 |   699 |396997 |  43.6 |    55M |  27 | 130 | 345 | 262 | 206k|  2 |1715 | 567 | 1.284080e+00 | 2.674803e+00 | 108.31%|  78.88%
 19.6s|  9200 |   687 |400166 |  43.5 |    56M |  27 | 130 | 345 | 281 | 207k|  8 |1740 | 570 | 1.284206e+00 | 2.674803e+00 | 108.28%|  79.41%
 19.7s|  9300 |   656 |402372 |  43.2 |    56M |  27 | 130 | 351 | 288 | 208k|  0 |1763 | 572 | 1.301564e+00 | 2.674803e+00 | 105.51%|  81.44%
 19.9s|  9400 |   631 |405166 |  43.1 |    56M |  27 | 130 | 355 | 221 | 209k|  0 |1786 | 573 | 1.311201e+00 | 2.674803e+00 | 104.00%|  82.32%
 20.0s|  9500 |   599 |408145 |  42.9 |    56M |  27 | 130 | 356 | 304 | 211k|  6 |1804 | 576 | 1.328920e+00 | 2.674803e+00 | 101.28%|  83.38%
 20.1s|  9600 |   574 |410922 |  42.8 |    56M |  27 | 130 | 360 | 233 | 212k|  1 |1826 | 577 | 1.350164e+00 | 2.674803e+00 |  98.11%|  84.00%
 time | node  | left  |LP iter|LP it/n|mem/heur|mdpt |vars |cons |rows |cuts |sepa|confs|strbr|  dualbound   | primalbound  |  gap   | compl. 
 20.3s|  9700 |   557 |413607 |  42.6 |    56M |  27 | 130 | 362 |   0 | 213k|  0 |1841 | 581 | 1.374546e+00 | 2.674803e+00 |  94.60%|  84.47%
 20.4s|  9800 |   530 |416180 |  42.4 |    56M |  27 | 130 | 382 | 268 | 214k|  0 |1877 | 587 | 1.435534e+00 | 2.674803e+00 |  86.33%|  85.87%
 20.6s|  9900 |   503 |419712 |  42.4 |    56M |  27 | 130 | 382 | 331 | 216k|  0 |1892 | 587 | 1.488507e+00 | 2.674803e+00 |  79.70%|  86.48%
 20.7s| 10000 |   480 |422367 |  42.2 |    56M |  27 | 130 | 383 | 284 | 218k|  2 |1909 | 588 | 1.520260e+00 | 2.674803e+00 |  75.94%|  87.06%
 20.9s| 10100 |   455 |425348 |  42.1 |    56M |  27 | 130 | 384 | 261 | 219k|  2 |1930 | 591 | 1.556752e+00 | 2.674803e+00 |  71.82%|  87.81%
 21.0s| 10200 |   430 |428409 |  42.0 |    56M |  27 | 130 | 398 | 278 | 221k|  2 |1954 | 591 | 1.572489e+00 | 2.674803e+00 |  70.10%|  88.35%
 21.1s| 10300 |   388 |430853 |  41.8 |    56M |  27 | 130 | 396 | 302 | 222k|  7 |1971 | 592 | 1.586965e+00 | 2.674803e+00 |  68.55%|  89.38%
 21.3s| 10400 |   349 |433470 |  41.7 |    56M |  27 | 130 | 397 | 330 | 223k|  0 |1985 | 593 | 1.685034e+00 | 2.674803e+00 |  58.74%|  90.37%
 21.5s| 10500 |   287 |435914 |  41.5 |    56M |  27 | 130 | 396 | 234 | 223k|  1 |1995 | 595 | 1.729813e+00 | 2.674803e+00 |  54.63%|  91.84%
 21.7s| 10600 |   266 |438803 |  41.4 |    56M |  27 | 130 | 422 | 299 | 225k|  1 |2038 | 599 | 1.738859e+00 | 2.674803e+00 |  53.83%|  92.83%
 21.8s| 10700 |   230 |441647 |  41.3 |    56M |  27 | 130 | 431 | 325 | 226k|  2 |2054 | 600 | 1.806948e+00 | 2.674803e+00 |  48.03%|  93.49%
 21.9s| 10800 |   183 |444222 |  41.1 |    56M |  27 | 130 | 438 | 271 | 227k|  0 |2068 | 605 | 1.834421e+00 | 2.674803e+00 |  45.81%|  94.58%
 22.1s| 10900 |   142 |446715 |  41.0 |    56M |  27 | 130 | 448 | 232 | 228k|  3 |2099 | 607 | 1.895755e+00 | 2.674803e+00 |  41.09%|  95.84%
 22.2s| 11000 |    96 |449004 |  40.8 |    56M |  27 | 130 | 451 |1096 | 229k|  0 |2109 | 607 | 1.941224e+00 | 2.674803e+00 |  37.79%|  96.90%
 22.4s| 11100 |    66 |451488 |  40.7 |    56M |  27 | 130 | 453 | 262 | 230k|  2 |2128 | 609 | 2.003920e+00 | 2.674803e+00 |  33.48%|  98.41%
 time | node  | left  |LP iter|LP it/n|mem/heur|mdpt |vars |cons |rows |cuts |sepa|confs|strbr|  dualbound   | primalbound  |  gap   | compl. 
 22.5s| 11200 |    11 |454158 |  40.5 |    56M |  27 | 130 | 456 | 286 | 231k|  0 |2142 | 612 | 2.419166e+00 | 2.674803e+00 |  10.57%|  99.47%

SCIP Status        : problem is solved [optimal solution found]
Solving Time (sec) : 22.58
Solving Nodes      : 11237
Primal Bound       : +2.67480325871632e+00 (18 solutions)
Dual Bound         : +2.67480325871632e+00
Gap                : 0.00 %


--- Reading solution for model GAMS_MODEL
***
*** Solver did not provide marginals for model GAMS_MODEL
***
--- Executing after solve: elapsed 0:00:22.658
--- model.gms(274) 3 Mb
--- model.gms(449) 5 Mb
--- Putfile results /local/scratch/a/sgusev/repos/k_means/data/gams_scip_gdp.bigm/no_mode/2026-02-16_00-57-43/original/results.dat
--- Putfile statresults /local/scratch/a/sgusev/repos/k_means/data/gams_scip_gdp.bigm/no_mode/2026-02-16_00-57-43/original/resultsstat.dat
*** Status: Normal completion
--- Job model.gms Stop 02/16/26 00:58:06 elapsed 0:00:22.658
Original problem solved. Time taken: 23.235963106155396 seconds
Original objective value: 2.6748032587163078
